
Gurobi 9.5.0 (linux64) logging started Fri Dec  8 09:24:23 2023

Set parameter LogFile to value "/lustre1/scratch/348/vsc34888/JointResearch/05.Models/06.Benchmarking/F.Representative_days_based_on_Line_Benefit_NN_OC_fy_1/RTS24_mod1_ByStages_nc300/openStarNet_RTS24_mod1_ByStages_nc300.log"
Set parameter Method to value 2
Set parameter MIPFocus to value 1
Set parameter Presolve to value 2
Set parameter RINS to value 100
Set parameter MIPGap to value 0.01
Set parameter Threads to value 36
Set parameter TimeLimit to value 259200
Set parameter IterationLimit to value 760000000
Gurobi Optimizer version 9.5.0 build v9.5.0rc5 (linux64)
Thread count: 36 physical cores, 36 logical processors, using up to 36 threads
Optimize a model with 106858 rows, 72123 columns and 291304 nonzeros
Model fingerprint: 0x918a338a
Variable types: 72102 continuous, 21 integer (21 binary)
Coefficient statistics:
  Matrix range     [1e-03, 8e+02]
  Objective range  [1e+00, 1e+00]
  Bounds range     [3e-05, 3e+00]
  RHS range        [3e-05, 3e+00]
Presolve removed 63639 rows and 36574 columns
Presolve time: 0.41s
Presolved: 43219 rows, 35549 columns, 156090 nonzeros
Variable types: 35528 continuous, 21 integer (21 binary)
Root relaxation presolved: 43219 rows, 35549 columns, 156090 nonzeros

Root barrier log...

Ordering time: 0.01s

Barrier statistics:
 Dense cols : 21
 AA' NZ     : 2.899e+05
 Factor NZ  : 8.446e+05 (roughly 40 MB of memory)
 Factor Ops : 1.935e+07 (less than 1 second per iteration)
 Threads    : 35

                  Objective                Residual
Iter       Primal          Dual         Primal    Dual     Compl     Time
   0   6.68063602e+05 -2.72304474e+08  5.33e+00 1.74e+02  7.63e+03     1s
   1   1.06889118e+05 -7.06874781e+07  7.08e-01 1.33e-08  1.07e+03     1s
   2   4.37839871e+04 -3.22647497e+07  1.89e-01 7.58e-09  3.80e+02     1s
   3   2.24400486e+04 -3.76151984e+06  9.19e-03 7.61e-09  3.83e+01     1s
   4   1.67390160e+04 -3.87241230e+05  6.38e-04 5.56e-10  4.02e+00     1s
   5   7.30150008e+03 -9.00228388e+04  5.38e-05 1.22e-10  9.67e-01     1s
   6   2.43056063e+03 -2.17198898e+04  1.00e-05 2.70e-11  2.40e-01     1s
   7   8.89112258e+02 -5.96019627e+03  2.32e-06 7.50e-12  6.80e-02     1s
   8   2.89373479e+02 -1.34527317e+03  1.02e-07 1.52e-12  1.62e-02     1s
   9   2.05976011e+02 -5.89200221e+02  5.68e-08 7.23e-13  7.90e-03     1s
  10   1.12233397e+02 -2.19448124e+02  1.76e-08 1.82e-12  3.29e-03     1s
  11   7.98410055e+01 -2.97900015e+01  8.28e-09 9.09e-13  1.09e-03     1s
  12   6.48639397e+01  1.10815958e+01  4.79e-09 4.55e-13  5.34e-04     1s
  13   5.90459029e+01  1.85172311e+01  3.50e-09 4.55e-13  4.02e-04     1s
  14   5.47596134e+01  2.16677015e+01  2.52e-09 9.09e-13  3.29e-04     1s
  15   5.25960531e+01  2.59044991e+01  2.01e-09 9.09e-13  2.65e-04     1s
  16   4.99313609e+01  3.00649100e+01  1.40e-09 9.09e-13  1.97e-04     1s
  17   4.78442485e+01  3.18193967e+01  9.19e-10 4.55e-13  1.59e-04     1s
  18   4.62056305e+01  3.77088741e+01  5.48e-10 9.09e-13  8.44e-05     1s
  19   4.59250517e+01  3.99285032e+01  4.74e-10 9.09e-13  5.95e-05     1s
  20   4.54672699e+01  4.05756673e+01  3.78e-10 2.27e-13  4.86e-05     1s
  21   4.50900097e+01  4.10862326e+01  2.94e-10 4.55e-13  3.98e-05     1s
  22   4.49253148e+01  4.16870664e+01  2.56e-10 4.55e-13  3.22e-05     1s
  23   4.46099322e+01  4.20886221e+01  1.84e-10 4.55e-13  2.50e-05     1s
  24   4.44884329e+01  4.23388144e+01  1.57e-10 9.09e-13  2.13e-05     1s
  25   4.42611614e+01  4.29694302e+01  1.08e-10 9.09e-13  1.28e-05     1s
  26   4.42075306e+01  4.30048927e+01  9.73e-11 9.09e-13  1.19e-05     1s
  27   4.41125645e+01  4.31908725e+01  7.67e-11 9.09e-13  9.15e-06     1s
  28   4.39697437e+01  4.33422378e+01  4.61e-11 9.09e-13  6.23e-06     1s
  29   4.38795500e+01  4.34755598e+01  6.78e-11 9.09e-13  4.01e-06     1s
  30   4.38337753e+01  4.35787541e+01  4.54e-11 2.27e-13  2.53e-06     1s
  31   4.38267884e+01  4.36347903e+01  4.22e-11 4.55e-13  1.91e-06     1s
  32   4.38151428e+01  4.36799630e+01  3.78e-11 9.09e-13  1.34e-06     1s
  33   4.37871759e+01  4.37025397e+01  6.35e-11 4.55e-13  8.40e-07     1s
  34   4.37715866e+01  4.37110508e+01  1.30e-10 2.27e-13  6.01e-07     1s
  35   4.37639721e+01  4.37236776e+01  4.90e-11 4.55e-13  4.00e-07     1s
  36   4.37634448e+01  4.37252209e+01  4.99e-11 4.55e-13  3.80e-07     1s
  37   4.37625893e+01  4.37392716e+01  4.50e-11 9.09e-13  2.32e-07     1s
  38   4.37612777e+01  4.37476693e+01  9.63e-11 4.55e-13  1.35e-07     1s
  39   4.37606708e+01  4.37550367e+01  5.09e-11 4.55e-13  5.59e-08     1s
  40   4.37602366e+01  4.37588128e+01  5.60e-09 5.97e-13  1.41e-08     1s
  41   4.37601432e+01  4.37594597e+01  4.36e-09 1.57e-11  6.79e-09     1s
  42   4.37600551e+01  4.37597406e+01  2.38e-09 4.08e-11  3.12e-09     2s
  43   4.37600311e+01  4.37598964e+01  1.61e-09 3.85e-10  1.34e-09     2s
  44   4.37600035e+01  4.37599272e+01  5.13e-10 2.47e-10  7.59e-10     2s
  45   4.37600001e+01  4.37599605e+01  2.78e-10 1.98e-09  3.93e-10     2s
  46   4.37599998e+01  4.37599691e+01  2.40e-10 1.54e-09  3.05e-10     2s
  47   4.37599988e+01  4.37599933e+01  1.01e-10 2.25e-10  5.46e-11     2s
  48   4.37599985e+01  4.37599963e+01  2.02e-10 8.99e-11  2.14e-11     2s
  49   4.37599985e+01  4.37599971e+01  9.51e-11 5.72e-11  1.37e-11     2s
  50   4.37599984e+01  4.37599984e+01  4.06e-11 1.05e-12  2.43e-13     2s

Barrier solved model in 50 iterations and 1.66 seconds (1.48 work units)
Optimal objective 4.37599984e+01


Root relaxation: objective 4.376000e+01, 5970 iterations, 1.48 seconds (1.23 work units)

    Nodes    |    Current Node    |     Objective Bounds      |     Work
 Expl Unexpl |  Obj  Depth IntInf | Incumbent    BestBd   Gap | It/Node Time

     0     0   43.76000    0   17          -   43.76000      -     -    2s
H    0     0                      83.6084809   43.76000  47.7%     -    3s
     0     0   44.20909    0    9   83.60848   44.20909  47.1%     -    5s
H    0     0                      80.7732067   44.20909  45.3%     -    5s
H    0     0                      74.3904819   44.20932  40.6%     -    6s
     0     0   44.20932    0    9   74.39048   44.20932  40.6%     -    6s
H    0     0                      68.1358135   44.35464  34.9%     -    7s
     0     0   44.35464    0   10   68.13581   44.35464  34.9%     -    8s
     0     0   44.45166    0   11   68.13581   44.45166  34.8%     -    9s
     0     0   44.61211    0   10   68.13581   44.61211  34.5%     -   11s
H    0     0                      65.6969156   44.61211  32.1%     -   12s
     0     0   44.62626    0   11   65.69692   44.62626  32.1%     -   12s
     0     0   44.63971    0   12   65.69692   44.63971  32.1%     -   13s
H    0     0                      62.7351526   44.63971  28.8%     -   14s
     0     0   45.06237    0   11   62.73515   45.06237  28.2%     -   14s
     0     0   45.11366    0   10   62.73515   45.11366  28.1%     -   17s
H    0     0                      59.4798700   45.11366  24.2%     -   44s
     0     2   45.11366    0   10   59.47987   45.11366  24.2%     -   45s
    15    32   45.23773    4   11   59.47987   45.20625  24.0%  1798   50s
    63    88   46.79713    6   12   59.47987   45.59968  23.3%  1640   57s
    99   118   47.94991    7   13   59.47987   46.82924  21.3%  1550   94s
   135   146   48.83861    8   13   59.47987   46.82924  21.3%  1530  143s
   171   178   51.39389    9   12   59.47987   46.82924  21.3%  1528  145s
   259   208   54.73934   10   11   59.47987   46.82924  21.3%  1600  164s
   303   206     cutoff   10        59.47987   46.82924  21.3%  1610  169s
   355   210   58.25605   11   10   59.47987   46.82924  21.3%  1581  172s
   419   210     cutoff   11        59.47987   46.82924  21.3%  1537  175s
   558   219   57.16163   10    8   59.47987   46.82924  21.3%  1507  180s
   711   207     cutoff   12        59.47987   46.82924  21.3%  1485  186s
   785   197     cutoff   13        59.47987   48.02608  19.3%  1484  190s
   968   203     cutoff    9        59.47987   48.11985  19.1%  1448  195s
  1184   184   56.81693    8    7   59.47987   50.78264  14.6%  1360  215s
  1253   178   59.06474    9    7   59.47987   50.78264  14.6%  1344  220s
  1540   124     cutoff   11        59.47987   51.09863  14.1%  1240  225s
  1799    71     cutoff   13        59.47987   54.49726  8.38%  1186  362s
  1885    42   54.82075   11   10   59.47987   54.51352  8.35%  1174  365s
  2064     0     cutoff   14        59.47987   57.50523  3.32%  1129  371s

Cutting planes:
  Implied bound: 3
  MIR: 1251
  Relax-and-lift: 162

Explored 2076 nodes (2358213 simplex iterations) in 371.20 seconds (667.76 work units)
Thread count was 36 (of 36 available processors)

Solution count 7: 59.4799 62.7352 65.6969 ... 83.6085

Optimal solution found (tolerance 1.00e-02)
Best objective 5.947987001819e+01, best bound 5.947987001819e+01, gap 0.0000%

Gurobi 9.5.0 (linux64) logging started Fri Dec  8 09:31:12 2023

Set parameter LogFile to value "/lustre1/scratch/348/vsc34888/JointResearch/05.Models/06.Benchmarking/F.Representative_days_based_on_Line_Benefit_NN_OC_fy_1/RTS24_mod1_ByStages_nc300/openStarNet_RTS24_mod1_ByStages_nc300.log"
Set parameter Method to value 2
Set parameter MIPFocus to value 1
Set parameter Presolve to value 2
Set parameter RINS to value 100
Set parameter MIPGap to value 0.01
Set parameter Threads to value 36
Set parameter TimeLimit to value 259200
Set parameter IterationLimit to value 760000000
No parameters matching 'relax_integrality' found
Gurobi Optimizer version 9.5.0 build v9.5.0rc5 (linux64)
Thread count: 36 physical cores, 36 logical processors, using up to 36 threads
Optimize a model with 106858 rows, 72102 columns and 265999 nonzeros
Model fingerprint: 0x33e80515
Coefficient statistics:
  Matrix range     [1e-03, 8e+02]
  Objective range  [1e+00, 1e+00]
  Bounds range     [3e-05, 3e+00]
  RHS range        [3e-05, 2e+01]
Presolve removed 89414 rows and 40573 columns
Presolve time: 0.13s
Presolved: 17444 rows, 31830 columns, 75132 nonzeros

Ordering time: 0.00s

Barrier statistics:
 AA' NZ     : 3.965e+04
 Factor NZ  : 1.499e+05 (roughly 17 MB of memory)
 Factor Ops : 1.931e+06 (less than 1 second per iteration)
 Threads    : 36

                  Objective                Residual
Iter       Primal          Dual         Primal    Dual     Compl     Time
   0   4.03982203e+06 -7.70013630e+07  5.51e+01 4.16e+01  2.60e+04     0s
   1   2.65434976e+05 -5.96604194e+07  3.08e+00 1.93e-12  2.35e+03     0s
   2   5.70200584e+04 -1.39702596e+07  4.87e-01 3.87e-12  3.78e+02     0s
   3   2.73763786e+04 -2.54092893e+06  4.87e-02 1.90e-12  5.28e+01     0s
   4   1.94420265e+04 -5.23217511e+05  4.43e-03 1.14e-12  1.02e+01     0s
   5   1.19490857e+04 -1.31231464e+05  3.47e-05 9.65e-13  2.66e+00     0s
   6   4.46575427e+03 -4.19966102e+04  2.41e-06 6.04e-13  8.62e-01     0s
   7   1.68517979e+03 -1.43502647e+04  4.30e-07 2.80e-13  2.97e-01     0s
   8   7.27705529e+02 -3.70492794e+03  9.60e-08 2.27e-13  8.22e-02     0s
   9   3.02146832e+02 -1.26845174e+03  5.63e-09 2.27e-13  2.91e-02     0s
  10   2.00897728e+02 -4.95698724e+02  2.13e-09 4.55e-13  1.29e-02     0s
  11   1.18033671e+02 -1.54628259e+02  5.50e-10 4.55e-13  5.06e-03     0s
  12   7.71174607e+01  2.40253519e+01  1.11e-10 4.55e-13  9.85e-04     0s
  13   6.48720248e+01  4.62390190e+01  2.79e-11 4.55e-13  3.46e-04     0s
  14   6.14105874e+01  5.43691321e+01  9.35e-12 2.27e-13  1.31e-04     0s
  15   6.02463056e+01  5.79220830e+01  6.31e-12 4.55e-13  4.31e-05     0s
  16   5.97896576e+01  5.89326501e+01  2.58e-11 4.55e-13  1.59e-05     0s
  17   5.95824130e+01  5.92712753e+01  1.96e-11 1.14e-13  5.77e-06     0s
  18   5.94998359e+01  5.94482171e+01  3.14e-11 2.27e-13  9.57e-07     0s
  19   5.94867467e+01  5.94737167e+01  2.99e-11 2.27e-13  2.42e-07     0s
  20   5.94802070e+01  5.94796791e+01  1.46e-10 4.55e-13  9.79e-09     0s
  21   5.94798712e+01  5.94798525e+01  2.84e-10 1.71e-13  3.47e-10     0s
  22   5.94798700e+01  5.94798700e+01  7.69e-11 2.27e-13  3.49e-13     0s
  23   5.94798700e+01  5.94798700e+01  8.63e-12 4.55e-13  9.20e-18     0s

Barrier solved model in 23 iterations and 0.38 seconds (0.34 work units)
Optimal objective 5.94798700e+01

Crossover log...

    3839 DPushes remaining with DInf 0.0000000e+00                 0s
       0 DPushes remaining with DInf 0.0000000e+00                 0s

     921 PPushes remaining with PInf 0.0000000e+00                 0s
       0 PPushes remaining with PInf 0.0000000e+00                 0s

  Push phase complete: Pinf 0.0000000e+00, Dinf 1.0444669e-13      0s

Iteration    Objective       Primal Inf.    Dual Inf.      Time
     955    5.9479870e+01   0.000000e+00   0.000000e+00      0s

Use crossover to convert LP symmetric solution to basic solution...
Crossover log...

       0 DPushes remaining with DInf 0.0000000e+00                 0s

     676 PPushes remaining with PInf 0.0000000e+00                 0s
       0 PPushes remaining with PInf 0.0000000e+00                 0s

  Push phase complete: Pinf 0.0000000e+00, Dinf 8.6799395e-14      0s

Iteration    Objective       Primal Inf.    Dual Inf.      Time
    1698    5.9479870e+01   0.000000e+00   0.000000e+00      1s

Solved in 1698 iterations and 0.57 seconds (0.44 work units)
Optimal objective  5.947987002e+01
